AES/1_3_4/ssaes_r1-20_c3_rw1_e4_f0_k1-20_aes_canon_box_aes_mc_bidirectional/ExperimentMinisat_r6_k9cnf_2011-10-29-152057/Result
WARNING: for repeatability, setting FPU to use double precision
============================[ Problem Statistics ]=============================
|                                                                             |
|  Number of variables:           756                                         |
|  Number of clauses:            4392                                         |
|  Parse time:                   0.00 s                                       |
|  Eliminated clauses:           0.01 Mb                                      |
|  Simplification time:          0.01 s                                       |
|                                                                             |
=============================[ Search Statistics ]==============================
| Conflicts  |          ORIGINAL         |          LEARNT          | Progress |
|            |    Vars  Clauses Literals |    Limit  Clauses Lit/Cl |          |
================================================================================
|        100 |     600     3984    12360 |     1460      100     24 |  6.352 % |
|        250 |     600     3984    12360 |     1606      250     23 |  6.351 % |
|        475 |     600     3984    12360 |     1767      475     22 |  6.351 % |
|        812 |     600     3984    12360 |     1944      812     21 |  6.351 % |
|       1318 |     600     3984    12360 |     2138     1318     21 |  6.351 % |
|       2077 |     600     3984    12360 |     2352     2077     21 |  6.351 % |
|       3216 |     600     3984    12360 |     2587     2014     18 |  6.351 % |
===============================================================================
restarts              : 24
conflicts             : 4545           (19100 /sec)
decisions             : 5135           (0.00 % random) (21579 /sec)
propagations          : 1386759        (5827624 /sec)
conflict literals     : 89289          (56.53 % deleted)
Memory used           : 8.00 MB
CPU time              : 0.237963 s

SATISFIABLE
